100 2 100
79 34 99 58 67 28 17 28 72 30 86 76 60 51 23 87 79 77 76 37 52 72 19 43 90 53 73 90 44 74 99 24 60 51 82 79 79 52 59 51 82 45 27 95 48 2 34 79 79 62 69 31 35 88 26 25 93 51 67 38 78 66 14 38 17 48 18 96 77 99 35 75 78 82 75 81 16 55 12 31 24 96 66 64 74 43 10 26 10 4 28 14 94 98 62 64 94 15 94 46 
